NAME : mEgtspf
TYPE : ATSP
DIMENSION : 55
EDGE_WEIGHT_TYPE : EXPLICIT
EDGE_WEIGHT_FORMAT : FULL_MATRIX
EDGE_WEIGHT_SECTION
99999 0 0 40 37 0 0 0 0 0 0 0 21 0 0 41 36 34 37 36 34 0 27 31 0 46 51 0 22 27 32 0 38 0 26 25 25 0 31 29 0 14 16 16 0 0 15 11 7 10 0 0 0 0 0 
17 99999 0 27 24 0 0 0 0 0 0 0 34 0 0 28 27 29 36 39 41 0 18 18 0 33 38 0 11 14 19 0 25 0 29 28 26 0 24 26 0 19 17 17 0 0 30 26 22 25 0 0 0 0 0 
42 0 99999 2 7 0 0 0 0 0 0 0 29 0 0 13 18 20 27 30 32 0 17 13 0 10 13 0 22 17 10 0 8 0 18 19 19 0 15 17 0 30 28 26 0 0 33 39 41 44 0 0 0 0 0 
40 0 0 99999 5 0 0 0 0 0 0 0 27 0 0 11 16 18 25 28 30 0 15 11 0 8 13 0 20 15 12 0 6 0 16 17 17 0 13 15 0 28 26 26 0 0 33 37 41 44 0 0 0 0 0 
37 0 0 7 99999 0 0 0 0 0 0 0 26 0 0 14 19 21 28 31 33 0 12 8 0 13 18 0 17 12 9 0 9 0 21 20 18 0 16 18 0 25 23 21 0 0 28 34 36 39 0 0 0 0 0 
16 0 0 34 31 99999 0 0 0 0 0 0 33 0 0 35 30 28 33 36 38 0 21 25 0 40 45 0 16 21 26 0 32 0 26 25 25 0 25 23 0 18 16 16 0 0 27 23 19 22 0 0 0 0 0 
19 0 0 25 22 0 99999 0 0 0 0 0 36 0 0 26 27 31 36 39 41 0 20 16 0 31 36 0 13 12 17 0 23 0 29 28 28 0 24 28 0 21 19 19 0 0 30 26 22 25 0 0 0 0 0 
26 0 0 32 33 0 0 99999 0 0 0 0 9 0 0 23 18 16 19 18 16 0 25 31 0 28 31 0 32 37 40 0 28 0 16 17 17 0 21 17 0 24 26 26 0 0 15 19 23 26 0 0 0 0 0 
24 0 0 28 29 0 0 0 99999 0 0 0 7 0 0 29 24 22 25 24 22 0 23 27 0 34 39 0 30 35 38 0 26 0 12 13 15 0 19 17 0 22 24 24 0 0 11 15 19 18 0 0 0 0 0 
27 0 0 33 34 0 0 0 0 99999 0 0 10 0 0 28 23 21 24 23 21 0 26 32 0 33 36 0 33 38 41 0 29 0 17 18 18 0 22 18 0 25 27 27 0 0 16 20 24 21 0 0 0 0 0 
26 0 0 32 33 0 0 0 0 0 99999 0 13 0 0 23 18 14 15 14 12 0 25 31 0 24 27 0 32 37 40 0 28 0 16 17 17 0 21 17 0 24 26 26 0 0 17 23 25 28 0 0 0 0 0 
22 0 0 30 27 0 0 0 0 0 0 99999 3 0 0 31 26 24 27 26 24 0 21 25 0 36 41 0 28 33 36 0 28 0 16 15 15 0 21 19 0 20 22 22 0 0 9 13 17 16 0 0 0 0 0 
19 0 0 27 24 0 0 0 0 0 0 0 99999 0 0 28 23 21 24 23 21 0 18 22 0 33 38 0 25 30 33 0 25 0 13 12 12 0 18 16 0 17 19 19 0 0 8 14 16 19 0 0 0 0 0 
20 0 0 26 27 0 0 0 0 0 0 0 7 99999 0 25 20 18 21 20 18 0 19 25 0 30 33 0 26 31 34 0 22 0 10 11 11 0 15 13 0 18 20 20 0 0 13 17 21 24 0 0 0 0 0 
44 0 0 8 9 0 0 0 0 0 0 0 31 0 99999 5 10 14 19 22 24 0 19 15 0 6 11 0 24 19 18 0 6 0 20 21 21 0 13 15 0 32 30 28 0 0 35 41 43 46 0 0 0 0 0 
41 0 0 13 14 0 0 0 0 0 0 0 28 0 0 99999 5 9 16 19 21 0 16 12 0 9 12 0 21 18 21 0 9 0 17 18 18 0 12 14 0 29 27 27 0 0 34 38 42 45 0 0 0 0 0 
36 0 0 18 19 0 0 0 0 0 0 0 23 0 0 9 99999 4 11 14 16 0 11 17 0 14 17 0 18 23 26 0 14 0 12 13 13 0 7 9 0 24 22 22 0 0 29 33 37 40 0 0 0 0 0 
36 0 0 20 21 0 0 0 0 0 0 0 23 0 0 11 6 99999 7 10 12 0 15 19 0 14 17 0 22 27 30 0 16 0 12 13 13 0 9 9 0 24 22 22 0 0 29 33 37 40 0 0 0 0 0 
37 0 0 27 28 0 0 0 0 0 0 0 24 0 0 18 13 9 99999 5 7 0 20 26 0 19 22 0 27 32 35 0 23 0 13 14 14 0 16 12 0 25 23 23 0 0 30 34 38 41 0 0 0 0 0 
36 0 0 30 31 0 0 0 0 0 0 0 23 0 0 21 16 12 7 99999 2 0 23 29 0 22 25 0 30 35 38 0 26 0 12 13 15 0 19 15 0 24 24 24 0 0 29 33 37 40 0 0 0 0 0 
34 0 0 32 33 0 0 0 0 0 0 0 21 0 0 23 18 14 9 6 99999 0 25 31 0 24 27 0 32 37 40 0 28 0 16 17 17 0 21 17 0 24 26 26 0 0 27 31 35 38 0 0 0 0 0 
29 0 0 15 12 0 0 0 0 0 0 0 16 0 0 16 11 11 18 21 23 99999 4 10 0 21 26 0 11 16 19 0 13 0 11 10 8 0 6 8 0 17 15 13 0 0 20 26 28 31 0 0 0 0 0 
29 0 0 15 12 0 0 0 0 0 0 0 20 0 0 16 11 15 20 23 25 0 99999 6 0 21 26 0 9 14 17 0 13 0 13 12 12 0 8 12 0 17 15 13 0 0 20 26 28 31 0 0 0 0 0 
31 0 0 13 10 0 0 0 0 0 0 0 24 0 0 14 17 19 26 29 31 0 8 99999 0 19 24 0 11 8 11 0 11 0 19 18 16 0 14 16 0 19 17 15 0 0 22 28 30 33 0 0 0 0 0 
46 0 0 8 11 0 0 0 0 0 0 0 33 0 0 9 14 16 23 26 28 0 21 17 99999 6 7 0 26 21 16 0 10 0 22 23 23 0 17 19 0 34 32 32 0 0 39 43 47 50 0 0 0 0 0 
48 0 0 10 13 0 0 0 0 0 0 0 35 0 0 9 14 16 17 20 22 0 23 19 0 99999 5 0 28 23 20 0 12 0 24 25 25 0 19 21 0 36 34 34 0 0 41 45 49 52 0 0 0 0 0 
53 0 0 13 18 0 0 0 0 0 0 0 40 0 0 12 17 19 22 25 27 0 28 24 0 7 99999 0 33 28 21 0 15 0 29 30 30 0 22 24 0 41 39 37 0 0 44 50 52 55 0 0 0 0 0 
22 0 0 22 19 0 0 0 0 0 0 0 23 0 0 23 18 16 23 26 28 0 9 13 0 28 33 99999 6 11 14 0 20 0 16 15 15 0 13 15 0 10 8 6 0 0 17 19 21 24 0 0 0 0 0 
24 0 0 20 17 0 0 0 0 0 0 0 27 0 0 21 18 22 27 30 32 0 11 11 0 26 31 0 99999 5 12 0 18 0 20 19 19 0 15 19 0 12 10 10 0 0 21 21 23 26 0 0 0 0 0 
29 0 0 15 12 0 0 0 0 0 0 0 32 0 0 18 23 27 32 35 37 0 16 10 0 21 26 0 9 99999 7 0 13 0 25 24 24 0 20 24 0 17 15 15 0 0 26 26 28 31 0 0 0 0 0 
34 0 0 10 9 0 0 0 0 0 0 0 33 0 0 19 24 28 33 36 38 0 17 11 0 18 19 0 14 9 99999 0 14 0 26 25 25 0 21 25 0 22 20 20 0 0 27 31 35 38 0 0 0 0 0 
38 0 0 6 5 0 0 0 0 0 0 0 25 0 0 9 14 18 23 26 28 0 13 9 0 12 15 0 18 13 14 99999 4 0 16 15 15 0 11 15 0 26 24 24 0 0 31 35 39 42 0 0 0 0 0 
38 0 0 8 9 0 0 0 0 0 0 0 25 0 0 7 12 14 21 24 26 0 13 9 0 12 15 0 18 13 16 0 99999 0 14 15 15 0 7 11 0 26 24 24 0 0 31 35 39 42 0 0 0 0 0 
30 0 0 20 21 0 0 0 0 0 0 0 17 0 0 15 10 8 11 10 12 0 15 19 0 20 23 0 22 27 30 0 16 99999 6 7 7 0 9 7 0 18 16 16 0 0 23 27 31 34 0 0 0 0 0 
26 0 0 18 19 0 0 0 0 0 0 0 13 0 0 19 14 12 15 14 16 0 11 17 0 24 29 0 18 23 26 0 16 0 99999 1 3 0 9 7 0 14 12 12 0 0 17 23 25 28 0 0 0 0 0 
25 0 0 19 18 0 0 0 0 0 0 0 12 0 0 20 15 13 16 15 17 0 10 16 0 25 30 0 17 22 25 0 17 0 5 99999 2 0 10 8 0 13 11 11 0 0 16 22 24 27 0 0 0 0 0 
27 0 0 17 16 0 0 0 0 0 0 0 14 0 0 18 13 11 14 15 17 0 10 14 0 23 28 0 17 22 25 0 15 0 5 4 99999 0 8 6 0 15 11 11 0 0 18 24 26 29 0 0 0 0 0 
35 0 0 11 12 0 0 0 0 0 0 0 22 0 0 10 7 11 16 19 21 0 10 10 0 15 20 0 13 18 21 0 7 0 11 12 12 99999 4 8 0 23 21 19 0 0 26 32 34 37 0 0 0 0 0 
31 0 0 15 16 0 0 0 0 0 0 0 18 0 0 14 9 7 14 17 19 0 8 14 0 19 22 0 15 20 23 0 11 0 7 8 8 0 99999 4 0 19 17 17 0 0 24 28 32 35 0 0 0 0 0 
31 0 0 17 18 0 0 0 0 0 0 0 18 0 0 14 9 7 10 13 15 0 12 16 0 19 22 0 19 24 27 0 13 0 7 8 8 0 6 99999 0 19 17 17 0 0 24 28 32 35 0 0 0 0 0 
13 0 0 31 26 0 0 0 0 0 0 0 16 0 0 32 27 25 28 27 25 0 16 20 0 37 40 0 11 16 23 0 29 0 15 14 14 0 22 20 99999 3 5 7 0 0 10 10 14 17 0 0 0 0 0 
16 0 0 28 25 0 0 0 0 0 0 0 19 0 0 29 24 22 25 24 24 0 15 19 0 34 39 0 8 13 20 0 26 0 14 13 13 0 19 17 0 99999 2 4 0 0 13 13 15 18 0 0 0 0 0 
18 0 0 26 23 0 0 0 0 0 0 0 21 0 0 27 22 20 23 24 26 0 13 17 0 32 37 0 6 11 18 0 24 0 14 13 11 0 17 15 0 6 99999 2 0 0 15 15 17 20 0 0 0 0 0 
18 0 0 26 21 0 0 0 0 0 0 0 19 0 0 27 22 20 23 22 24 0 11 15 0 32 35 0 10 15 18 0 24 0 12 11 9 0 17 15 0 6 4 99999 0 0 13 15 19 22 0 0 0 0 0 
16 0 0 28 25 0 0 0 0 0 0 0 9 0 0 29 24 22 25 24 22 0 15 17 0 34 39 0 18 23 26 0 26 0 14 13 13 0 19 17 0 10 12 12 99999 0 7 13 15 18 0 0 0 0 0 
16 0 0 28 23 0 0 0 0 0 0 0 13 0 0 29 24 22 25 24 20 0 13 17 0 34 37 0 14 19 22 0 26 0 12 11 11 0 19 17 0 6 8 8 0 99999 7 13 17 20 0 0 0 0 0 
15 0 0 35 30 0 0 0 0 0 0 0 8 0 0 36 31 29 32 31 29 0 20 24 0 41 44 0 21 26 29 0 33 0 19 18 18 0 26 24 0 13 15 15 0 0 99999 6 10 13 0 0 0 0 0 
9 0 0 39 36 0 0 0 0 0 0 0 14 0 0 40 35 33 36 35 33 0 26 30 0 45 50 0 21 26 31 0 37 0 25 24 24 0 30 28 0 13 15 15 0 0 8 99999 4 7 0 0 0 0 0 
7 0 0 43 38 0 0 0 0 0 0 0 16 0 0 44 39 37 40 39 37 0 28 32 0 49 52 0 23 28 35 0 41 0 27 26 26 0 34 32 0 15 17 19 0 0 10 6 99999 3 0 0 0 0 0 
10 0 0 46 41 0 0 0 0 0 0 0 19 0 0 47 42 40 43 42 40 0 31 35 0 52 55 0 26 31 38 0 44 0 30 29 29 0 37 35 0 18 20 22 0 0 15 9 7 99999 0 0 0 0 0 
25 0 0 31 30 0 0 0 0 0 0 0 8 0 0 32 27 25 28 27 25 0 24 28 0 37 40 0 31 36 39 0 29 0 15 14 14 0 22 20 0 23 25 25 0 0 12 16 20 17 99999 0 0 0 0 
23 0 0 21 18 0 0 0 0 0 0 0 38 0 0 26 31 33 40 43 45 0 22 18 0 27 32 0 15 10 13 0 21 0 33 32 30 0 28 30 0 23 21 21 0 0 34 30 26 29 0 99999 0 0 0 
11 0 0 33 30 0 0 0 0 0 0 0 24 0 0 34 29 27 30 29 29 0 20 24 0 39 44 0 15 20 25 0 31 0 19 18 18 0 24 22 0 7 9 9 0 0 18 14 10 13 0 0 99999 0 0 
12 0 0 38 33 0 0 0 0 0 0 0 29 0 0 39 34 32 35 34 36 0 23 27 0 44 47 0 18 23 30 0 36 0 24 23 21 0 29 27 0 14 12 12 0 0 25 21 17 20 0 0 0 99999 0 
5 0 0 45 40 0 0 0 0 0 0 0 18 0 0 46 41 39 42 41 39 0 30 34 0 51 54 0 25 30 37 0 43 0 29 28 28 0 36 34 0 17 19 21 0 0 14 8 6 5 0 0 0 0 99999 
EOF
